solution status: optimal solution found
objective value:                                  705
v#1$Producto A                                      1 	(obj:0)
v#1$Producto B                                      1 	(obj:0)
v#1$Producto C                                      1 	(obj:0)
v#1$Producto D                                      1 	(obj:0)
v#1$Producto E                                      1 	(obj:0)
v#2$Producto A                                      1 	(obj:0)
v#2$Producto B                                      1 	(obj:0)
v#2$Producto C                                      1 	(obj:0)
v#2$Producto D                                      1 	(obj:0)
v#2$Producto E                                      1 	(obj:0)
v#3$Producto A                                      1 	(obj:0)
v#3$Producto B                                      1 	(obj:0)
v#3$Producto D                                      1 	(obj:0)
v#4$Producto A                                      1 	(obj:0)
v#4$Producto B                                      1 	(obj:0)
v#5$Producto B                                      1 	(obj:0)
v#5$Producto C                                      1 	(obj:0)
v#6$Producto A                                      1 	(obj:0)
v#6$Producto B                                      1 	(obj:0)
v#7$Producto B                                      1 	(obj:0)
v#8$Producto A                                      1 	(obj:0)
v#9$Producto A                                      1 	(obj:0)
v#9$Producto B                                      1 	(obj:0)
v#10$Producto A                                     1 	(obj:0)
v#10$Producto B                                     1 	(obj:0)
v#10$Producto C                                     1 	(obj:0)
v#10$Producto D                                     1 	(obj:0)
v#11$Producto B                                     1 	(obj:0)
v#11$Producto C                                     1 	(obj:0)
v#11$Producto D                                     1 	(obj:0)
v#11$Producto E                                     1 	(obj:0)
v#12$Producto B                                     1 	(obj:0)
v#12$Producto E                                     1 	(obj:0)
v#13$Producto E                                     1 	(obj:0)
v#14$Producto B                                     1 	(obj:0)
v#14$Producto C                                     1 	(obj:0)
v#14$Producto D                                     1 	(obj:0)
v#15$Producto B                                     1 	(obj:0)
v#16$Producto A                                     1 	(obj:0)
v#16$Producto B                                     1 	(obj:0)
v#16$Producto C                                     1 	(obj:0)
v#17$Producto B                                     1 	(obj:0)
v#17$Producto C                                     1 	(obj:0)
v#18$Producto B                                     1 	(obj:0)
v#19$Producto A                                     1 	(obj:0)
v#20$Producto A                                     1 	(obj:0)
v#20$Producto B                                     1 	(obj:0)
v#21$Producto B                                     1 	(obj:0)
v#21$Producto D                                     1 	(obj:0)
v#21$Producto E                                     1 	(obj:0)
v#22$Producto B                                     1 	(obj:0)
v#22$Producto C                                     1 	(obj:0)
v#22$Producto D                                     1 	(obj:0)
v#22$Producto E                                     1 	(obj:0)
v#23$Producto B                                     1 	(obj:0)
v#23$Producto C                                     1 	(obj:0)
v#23$Producto D                                     1 	(obj:0)
v#23$Producto E                                     1 	(obj:0)
w#1$Producto A                                     12 	(obj:0)
w#1$Producto B                                     12 	(obj:0)
w#1$Producto C                                      6 	(obj:0)
w#2$Producto A                                      2 	(obj:0)
w#5$Producto A                                     12 	(obj:0)
w#6$Producto A                                     12 	(obj:0)
w#6$Producto D                                      6 	(obj:0)
w#6$Producto E                                     12 	(obj:0)
w#7$Producto A                                      6 	(obj:0)
w#7$Producto D                                     12 	(obj:0)
w#7$Producto E                                     12 	(obj:0)
w#8$Producto C                                      6 	(obj:0)
w#8$Producto D                                     12 	(obj:0)
w#8$Producto E                                     12 	(obj:0)
w#9$Producto A                                      4 	(obj:0)
w#9$Producto C                                      7 	(obj:0)
w#9$Producto D                                      7 	(obj:0)
w#9$Producto E                                     12 	(obj:0)
w#10$Producto D                                    12 	(obj:0)
w#10$Producto E                                     7 	(obj:0)
w#12$Producto A                                    10 	(obj:0)
w#17$Producto A                                    12 	(obj:0)
w#18$Producto A                                     6 	(obj:0)
w#18$Producto D                                    12 	(obj:0)
w#18$Producto E                                    12 	(obj:0)
w#19$Producto A                                     6 	(obj:0)
w#19$Producto D                                    12 	(obj:0)
w#19$Producto E                                    12 	(obj:0)
w#20$Producto A                                    12 	(obj:0)
w#20$Producto B                                     6 	(obj:0)
w#20$Producto E                                    12 	(obj:0)
w#21$Producto A                                    12 	(obj:0)
w#21$Producto B                                    12 	(obj:0)
w#21$Producto C                                     6 	(obj:0)
w#22$Producto A                                    12 	(obj:0)
s#24$Producto A                                    10 	(obj:0)
x#1$Producto A                                    120 	(obj:0)
x#1$Producto B                                    120 	(obj:0)
x#1$Producto C                                     60 	(obj:0)
x#2$Producto A                                     20 	(obj:0)
x#5$Producto A                                    120 	(obj:0)
x#6$Producto A                                    120 	(obj:0)
x#6$Producto D                                     60 	(obj:0)
x#6$Producto E                                    120 	(obj:0)
x#7$Producto A                                     60 	(obj:0)
x#7$Producto D                                    120 	(obj:0)
x#7$Producto E                                    120 	(obj:0)
x#8$Producto C                                     60 	(obj:0)
x#8$Producto D                                    120 	(obj:0)
x#8$Producto E                                    120 	(obj:0)
x#9$Producto A                                     40 	(obj:0)
x#9$Producto C                                     70 	(obj:0)
x#9$Producto D                                     70 	(obj:0)
x#9$Producto E                                    120 	(obj:0)
x#10$Producto D                                   120 	(obj:0)
x#10$Producto E                                    70 	(obj:0)
x#12$Producto A                                   100 	(obj:0)
x#17$Producto A                                   120 	(obj:0)
x#18$Producto A                                    60 	(obj:0)
x#18$Producto D                                   120 	(obj:0)
x#18$Producto E                                   120 	(obj:0)
x#19$Producto A                                    60 	(obj:0)
x#19$Producto D                                   120 	(obj:0)
x#19$Producto E                                   120 	(obj:0)
x#20$Producto A                                   120 	(obj:0)
x#20$Producto B                                    60 	(obj:0)
x#20$Producto E                                   120 	(obj:0)
x#21$Producto A                                   120 	(obj:0)
x#21$Producto B                                   120 	(obj:0)
x#21$Producto C                                    60 	(obj:0)
x#22$Producto A                                   120 	(obj:0)
z#1$Producto A                                     20 	(obj:0)
z#1$Producto B                                     20 	(obj:0)
z#1$Producto C                                     20 	(obj:0)
z#1$Producto D                                     20 	(obj:0)
z#1$Producto E                                    120 	(obj:0)
z#2$Producto A                                     20 	(obj:0)
z#2$Producto B                                     20 	(obj:0)
z#2$Producto C                                     45 	(obj:0)
z#2$Producto D                                     20 	(obj:0)
z#2$Producto E                                     95 	(obj:0)
z#3$Producto A                                     20 	(obj:0)
z#3$Producto B                                     85 	(obj:0)
z#3$Producto D                                     95 	(obj:0)
z#4$Producto A                                     20 	(obj:0)
z#4$Producto B                                    180 	(obj:0)
z#5$Producto B                                     45 	(obj:0)
z#5$Producto C                                    155 	(obj:0)
z#6$Producto A                                     25 	(obj:0)
z#6$Producto B                                    175 	(obj:0)
z#7$Producto B                                    200 	(obj:0)
z#8$Producto A                                    200 	(obj:0)
z#9$Producto A                                     30 	(obj:0)
z#9$Producto B                                    170 	(obj:0)
z#10$Producto A                                    90 	(obj:0)
z#10$Producto B                                    60 	(obj:0)
z#10$Producto C                                    30 	(obj:0)
z#10$Producto D                                    20 	(obj:0)
z#11$Producto B                                    40 	(obj:0)
z#11$Producto C                                    35 	(obj:0)
z#11$Producto D                                    85 	(obj:0)
z#11$Producto E                                    40 	(obj:0)
z#12$Producto B                                   100 	(obj:0)
z#12$Producto E                                    20 	(obj:0)
z#13$Producto E                                   200 	(obj:0)
z#14$Producto B                                    20 	(obj:0)
z#14$Producto C                                    95 	(obj:0)
z#14$Producto D                                    85 	(obj:0)
z#15$Producto B                                   200 	(obj:0)
z#16$Producto A                                    35 	(obj:0)
z#16$Producto B                                    20 	(obj:0)
z#16$Producto C                                   140 	(obj:0)
z#17$Producto B                                    95 	(obj:0)
z#17$Producto C                                   105 	(obj:0)
z#18$Producto B                                   200 	(obj:0)
z#19$Producto A                                   200 	(obj:0)
z#20$Producto A                                    20 	(obj:0)
z#20$Producto B                                   180 	(obj:0)
z#21$Producto B                                    45 	(obj:0)
z#21$Producto D                                    20 	(obj:0)
z#21$Producto E                                   135 	(obj:0)
z#22$Producto B                                    60 	(obj:0)
z#22$Producto C                                    30 	(obj:0)
z#22$Producto D                                    30 	(obj:0)
z#22$Producto E                                    70 	(obj:0)
z#23$Producto B                                    65 	(obj:0)
z#23$Producto C                                    25 	(obj:0)
z#23$Producto D                                    35 	(obj:0)
z#23$Producto E                                    60 	(obj:0)
s#1$Producto A                                    120 	(obj:0)
s#1$Producto B                                    110 	(obj:0)
s#1$Producto C                                     70 	(obj:0)
s#1$Producto D                                      5 	(obj:0)
s#1$Producto E                                    105 	(obj:0)
s#2$Producto A                                    135 	(obj:0)
s#2$Producto B                                     90 	(obj:0)
s#2$Producto C                                    100 	(obj:0)
s#2$Producto D                                      5 	(obj:0)
s#2$Producto E                                    185 	(obj:0)
s#3$Producto A                                    125 	(obj:0)
s#3$Producto B                                    135 	(obj:0)
s#3$Producto C                                     85 	(obj:0)
s#3$Producto D                                     80 	(obj:0)
s#3$Producto E                                    165 	(obj:0)
s#4$Producto A                                    105 	(obj:0)
s#4$Producto B                                    270 	(obj:0)
s#4$Producto C                                     65 	(obj:0)
s#4$Producto D                                     60 	(obj:0)
s#4$Producto E                                    140 	(obj:0)
s#5$Producto A                                    165 	(obj:0)
s#5$Producto B                                    225 	(obj:0)
s#5$Producto C                                    190 	(obj:0)
s#5$Producto D                                     15 	(obj:0)
s#5$Producto E                                     70 	(obj:0)
s#6$Producto A                                    210 	(obj:0)
s#6$Producto B                                    260 	(obj:0)
s#6$Producto C                                    140 	(obj:0)
s#6$Producto D                                      5 	(obj:0)
s#6$Producto E                                     90 	(obj:0)
s#7$Producto A                                     90 	(obj:0)
s#7$Producto B                                    250 	(obj:0)
s#7$Producto C                                     50 	(obj:0)
s#7$Producto D                                     20 	(obj:0)
s#7$Producto E                                     60 	(obj:0)
s#8$Producto A                                     80 	(obj:0)
s#8$Producto C                                      5 	(obj:0)
s#8$Producto D                                     15 	(obj:0)
s#8$Producto E                                     20 	(obj:0)
s#10$Producto A                                    30 	(obj:0)
s#10$Producto D                                   110 	(obj:0)
s#11$Producto C                                    20 	(obj:0)
s#11$Producto D                                   175 	(obj:0)
s#12$Producto A                                    80 	(obj:0)
s#12$Producto B                                    75 	(obj:0)
s#12$Producto C                                    10 	(obj:0)
s#12$Producto D                                   160 	(obj:0)
s#13$Producto A                                    60 	(obj:0)
s#13$Producto B                                    45 	(obj:0)
s#13$Producto D                                   145 	(obj:0)
s#13$Producto E                                   185 	(obj:0)
s#14$Producto A                                    35 	(obj:0)
s#14$Producto B                                    25 	(obj:0)
s#14$Producto C                                    80 	(obj:0)
s#14$Producto D                                   210 	(obj:0)
s#14$Producto E                                   170 	(obj:0)
s#15$Producto A                                     5 	(obj:0)
s#15$Producto B                                   185 	(obj:0)
s#15$Producto C                                    65 	(obj:0)
s#15$Producto D                                   190 	(obj:0)
s#15$Producto E                                   150 	(obj:0)
s#16$Producto B                                   160 	(obj:0)
s#16$Producto C                                   185 	(obj:0)
s#16$Producto D                                   170 	(obj:0)
s#16$Producto E                                   125 	(obj:0)
s#17$Producto A                                    60 	(obj:0)
s#17$Producto B                                   165 	(obj:0)
s#17$Producto C                                   260 	(obj:0)
s#17$Producto D                                   125 	(obj:0)
s#17$Producto E                                    55 	(obj:0)
s#18$Producto A                                    20 	(obj:0)
s#18$Producto B                                   225 	(obj:0)
s#18$Producto C                                   210 	(obj:0)
s#18$Producto D                                   175 	(obj:0)
s#18$Producto E                                    75 	(obj:0)
s#19$Producto A                                   100 	(obj:0)
s#19$Producto B                                    15 	(obj:0)
s#19$Producto C                                   120 	(obj:0)
s#19$Producto D                                   190 	(obj:0)
s#19$Producto E                                    45 	(obj:0)
s#20$Producto A                                    30 	(obj:0)
s#20$Producto B                                     5 	(obj:0)
s#20$Producto C                                    15 	(obj:0)
s#20$Producto D                                    65 	(obj:0)
s#20$Producto E                                     5 	(obj:0)
s#22$Producto A                                    60 	(obj:0)
s#23$Producto A                                    30 	(obj:0)
s#23$Producto B                                    25 	(obj:0)
s#23$Producto C                                    10 	(obj:0)
s#23$Producto D                                    15 	(obj:0)
s#23$Producto E                                    20 	(obj:0)
capMin                                            705 	(obj:1)
